EGSTP_runtime_files/empty-32-32_p_safe_0.8_typeOfTest_1_mEgtsp.gtsp
NAME : mEgtspf
TYPE : AGTSP
DIMENSION : 90
GTSP_SETS : 30
EDGE_WEIGHT_TYPE : EXPLICIT
EDGE_WEIGHT_FORMAT : FULL_MATRIX
EDGE_WEIGHT_SECTION
0 0 0 0 0 0 0 0 0 0 13 12 13 14 35 34 35 36 22 23 24 23 37 36 37 38 39 38 39 40 40 39 40 41 41 40 41 42 24 25 24 23 26 27 26 25 48 47 48 49 29 28 29 30 47 46 47 48 47 46 47 48 45 44 45 46 30 29 30 31 23 24 23 22 42 41 42 43 10 11 10 9 21 22 21 20 28 29 30 29
0 0 0 0 0 0 0 0 0 0 11 12 13 12 31 30 31 32 38 37 38 39 17 16 17 18 29 28 29 30 22 21 22 23 21 20 21 22 10 9 8 9 12 11 10 11 28 27 28 29 13 12 11 12 27 26 27 28 27 26 27 28 25 24 25 26 14 13 14 15 9 8 7 8 22 21 22 23 18 19 20 19 5 6 5 4 44 43 44 45
0 0 0 0 0 0 0 0 0 0 34 35 34 33 12 13 12 11 13 14 15 14 36 37 36 35 14 15 14 13 21 22 21 20 32 33 32 31 47 48 47 46 49 50 49 48 23 24 23 22 50 51 50 49 20 19 18 19 20 19 20 21 20 21 20 19 29 30 29 28 46 47 46 45 23 24 23 22 33 34 33 32 44 45 44 43 5 6 7 6
0 0 0 0 0 0 0 0 0 0 30 31 32 31 12 13 14 13 25 26 27 26 16 17 16 15 10 11 12 11 3 4 5 4 12 13 12 11 27 28 27 26 29 30 29 28 9 8 9 10 30 31 30 29 8 7 8 9 8 7 8 9 6 5 6 7 13 14 15 14 26 27 26 25 3 2 1 2 37 38 39 38 24 25 24 23 25 26 27 26
0 0 0 0 0 0 0 0 0 0 14 13 12 13 36 35 34 35 33 32 33 34 38 37 36 37 40 39 38 39 41 40 39 40 42 41 40 41 19 18 17 18 21 20 19 20 49 48 47 48 30 29 28 29 48 47 46 47 48 47 46 47 46 45 44 45 31 30 29 30 22 21 20 21 43 42 41 42 5 4 5 6 20 19 18 19 39 38 39 40
0 0 0 0 0 0 0 0 0 0 21 22 21 20 33 32 31 32 16 15 14 15 35 34 33 34 37 36 35 36 38 37 36 37 39 38 37 38 34 35 34 33 36 37 36 35 46 45 44 45 37 38 37 36 45 44 43 44 45 44 43 44 43 42 41 42 28 27 26 27 33 34 33 32 40 39 38 39 20 21 20 19 31 32 31 30 24 23 22 23
0 0 0 0 0 0 0 0 0 0 23 24 23 22 35 34 35 36 42 41 42 43 11 10 11 12 33 32 33 34 26 25 26 27 15 14 15 16 18 19 18 17 16 17 16 15 24 23 24 25 7 8 7 6 27 26 27 28 29 28 29 30 27 26 27 28 18 17 18 19 15 16 15 14 24 23 24 25 30 31 30 29 17 18 17 16 48 47 48 49
0 0 0 0 0 0 0 0 0 0 11 10 9 10 33 32 31 32 28 29 30 29 35 34 33 34 37 36 35 36 38 37 36 37 39 38 37 38 18 19 18 17 20 21 20 19 46 45 44 45 27 26 25 26 45 44 43 44 45 44 43 44 43 42 41 42 28 27 26 27 19 18 17 18 40 39 38 39 4 3 2 3 17 16 15 16 34 35 36 35
0 0 0 0 0 0 0 0 0 0 19 20 21 20 39 38 39 40 46 45 46 47 15 14 15 16 37 36 37 38 30 29 30 31 19 18 19 20 14 15 16 15 12 13 14 13 28 27 28 29 3 4 3 2 31 30 31 32 33 32 33 34 31 30 31 32 22 21 22 23 11 12 13 12 28 27 28 29 26 27 28 27 13 14 15 14 52 51 52 53
0 0 0 0 0 0 0 0 0 0 22 21 20 21 36 35 34 35 19 18 17 18 38 37 36 37 40 39 38 39 41 40 39 40 42 41 40 41 35 34 33 34 37 36 35 36 49 48 47 48 38 37 36 37 48 47 46 47 48 47 46 47 46 45 44 45 31 30 29 30 34 33 32 33 43 42 41 42 21 20 19 20 32 31 30 31 27 26 25 26
0 0 0 0 0 0 0 0 0 0 0 0 0 0 24 23 24 25 31 30 31 32 28 27 26 27 30 29 28 29 31 30 29 30 32 31 30 31 17 16 15 16 19 18 17 18 39 38 37 38 20 19 18 19 38 37 36 37 38 37 36 37 36 35 34 35 21 20 19 20 16 15 14 15 33 32 31 32 9 10 9 8 14 13 12 13 37 36 37 38
0 0 0 0 0 0 0 0 0 0 0 0 0 0 23 22 23 24 30 31 32 31 27 26 25 26 29 28 27 28 30 29 28 29 31 30 29 30 16 17 16 15 18 19 18 17 38 37 36 37 19 18 17 18 37 36 35 36 37 36 35 36 35 34 33 34 20 19 18 19 15 16 15 14 32 31 30 31 10 11 10 9 13 14 13 12 36 37 38 37
0 0 0 0 0 0 0 0 0 0 0 0 0 0 24 23 24 25 31 32 33 32 26 25 26 27 28 27 28 29 29 28 29 30 30 29 30 31 15 16 15 14 17 18 17 16 37 36 37 38 18 17 16 17 36 35 36 37 36 35 36 37 34 33 34 35 19 18 19 20 14 15 14 13 31 30 31 32 9 10 11 10 12 13 12 11 37 38 39 38
0 0 0 0 0 0 0 0 0 0 0 0 0 0 25 24 25 26 32 31 32 33 27 26 27 28 29 28 29 30 30 29 30 31 31 30 31 32 16 15 14 15 18 17 16 17 38 37 38 39 19 18 17 18 37 36 37 38 37 36 37 38 35 34 35 36 20 19 20 21 15 14 13 14 32 31 32 33 8 9 10 9 13 12 11 12 38 37 38 39
0 0 0 0 0 0 0 0 0 0 24 25 24 23 0 0 0 0 19 20 19 18 28 27 26 27 8 7 6 7 13 12 11 12 24 23 22 23 39 38 37 38 41 40 39 40 17 16 15 16 42 41 40 41 16 15 14 15 16 15 14 15 14 13 12 13 21 20 19 20 38 37 36 37 15 14 13 14 31 32 31 30 36 35 34 35 15 14 15 16
0 0 0 0 0 0 0 0 0 0 25 26 25 24 0 0 0 0 20 21 20 19 27 28 27 26 7 6 5 6 12 13 12 11 23 24 23 22 38 39 38 37 40 41 40 39 16 15 14 15 41 42 41 40 15 14 13 14 15 14 13 14 13 12 11 12 20 21 20 19 37 38 37 36 14 15 14 13 32 33 32 31 35 36 35 34 14 15 16 15
0 0 0 0 0 0 0 0 0 0 24 25 24 23 0 0 0 0 19 20 21 20 26 27 26 25 6 5 6 7 11 12 11 10 22 23 22 21 37 38 37 36 39 40 39 38 15 14 15 16 40 41 40 39 14 13 14 15 14 13 14 15 12 11 12 13 19 20 19 18 36 37 36 35 13 14 13 12 31 32 33 32 34 35 34 33 15 16 17 16
0 0 0 0 0 0 0 0 0 0 23 24 23 22 0 0 0 0 18 19 20 19 27 26 25 26 7 6 7 8 12 11 10 11 23 22 21 22 38 37 36 37 40 39 38 39 16 15 16 17 41 40 39 40 15 14 15 16 15 14 15 16 13 12 13 14 20 19 18 19 37 36 35 36 14 13 12 13 30 31 32 31 35 34 33 34 16 15 16 17
0 0 0 0 0 0 0 0 0 0 33 32 31 32 21 20 19 20 0 0 0 0 35 34 33 34 25 24 23 24 26 25 24 25 31 30 29 30 46 45 44 45 48 47 46 47 34 33 32 33 49 48 47 48 33 32 31 32 33 32 31 32 31 30 29 30 28 27 26 27 45 44 43 44 28 27 26 27 32 31 30 31 43 42 41 42 12 11 10 11
0 0 0 0 0 0 0 0 0 0 32 33 32 31 20 19 18 19 0 0 0 0 34 35 34 33 24 23 22 23 25 24 23 24 30 31 30 29 45 46 45 44 47 48 47 46 33 32 31 32 48 49 48 47 32 31 30 31 32 31 30 31 30 29 28 29 27 28 27 26 44 45 44 43 27 26 25 26 31 32 31 30 42 43 42 41 11 10 9 10
0 0 0 0 0 0 0 0 0 0 31 32 31 30 19 18 19 20 0 0 0 0 33 34 33 32 23 22 23 24 24 23 24 25 29 30 29 28 44 45 44 43 46 47 46 45 32 31 32 33 47 48 47 46 31 30 31 32 31 30 31 32 29 28 29 30 26 27 26 25 43 44 43 42 26 25 26 27 30 31 30 29 41 42 41 40 10 9 10 11
0 0 0 0 0 0 0 0 0 0 32 31 30 31 20 19 20 21 0 0 0 0 34 33 32 33 24 23 24 25 25 24 25 26 30 29 28 29 45 44 43 44 47 46 45 46 33 32 33 34 48 47 46 47 32 31 32 33 32 31 32 33 30 29 30 31 27 26 25 26 44 43 42 43 27 26 27 28 31 30 29 30 42 41 40 41 11 10 11 12
0 0 0 0 0 0 0 0 0 0 26 27 26 25 26 25 26 27 33 32 33 34 0 0 0 0 24 23 24 25 17 16 17 18 6 5 6 7 21 22 21 20 19 20 19 18 15 14 15 16 18 17 16 17 18 17 18 19 20 19 20 21 18 17 18 19 7 8 9 8 18 19 18 17 15 14 15 16 33 34 33 32 20 21 20 19 39 38 39 40
0 0 0 0 0 0 0 0 0 0 27 28 27 26 25 26 27 26 32 33 34 33 0 0 0 0 23 24 25 24 16 17 18 17 5 4 5 6 22 23 22 21 20 21 20 19 14 15 16 15 17 18 17 16 17 18 19 18 19 20 21 20 17 18 19 18 8 9 10 9 19 20 19 18 14 15 16 15 34 35 34 33 21 22 21 20 38 39 40 39
0 0 0 0 0 0 0 0 0 0 26 27 28 27 26 27 28 27 33 34 35 34 0 0 0 0 24 25 26 25 17 18 19 18 6 5 6 7 21 22 23 22 19 20 21 20 15 16 17 16 16 17 16 15 18 19 20 19 20 21 22 21 18 19 20 19 9 10 11 10 18 19 20 19 15 16 17 16 33 34 35 34 20 21 22 21 39 40 41 40
0 0 0 0 0 0 0 0 0 0 25 26 27 26 27 26 27 28 34 33 34 35 0 0 0 0 25 24 25 26 18 17 18 19 7 6 7 8 20 21 22 21 18 19 20 19 16 15 16 17 17 16 15 16 19 18 19 20 21 20 21 22 19 18 19 20 8 9 10 9 17 18 19 18 16 15 16 17 32 33 34 33 19 20 21 20 40 39 40 41
0 0 0 0 0 0 0 0 0 0 28 29 28 27 6 7 6 5 23 24 23 22 26 25 24 25 0 0 0 0 11 10 9 10 22 21 20 21 37 36 35 36 39 38 37 38 13 12 11 12 40 39 38 39 12 11 10 11 12 11 10 11 10 9 8 9 19 18 17 18 36 35 34 35 13 12 11 12 35 36 35 34 34 33 32 33 17 16 17 18
0 0 0 0 0 0 0 0 0 0 29 30 29 28 7 8 7 6 24 25 24 23 25 26 25 24 0 0 0 0 10 11 10 9 21 22 21 20 36 37 36 35 38 39 38 37 12 11 10 11 39 40 39 38 11 10 9 10 11 10 9 10 9 8 7 8 18 19 18 17 35 36 35 34 12 13 12 11 36 37 36 35 33 34 33 32 16 17 18 17
0 0 0 0 0 0 0 0 0 0 28 29 30 29 6 7 8 7 23 24 25 24 24 25 24 23 0 0 0 0 9 10 9 8 20 21 20 19 35 36 35 34 37 38 37 36 11 10 9 10 38 39 38 37 10 9 10 11 10 9 10 11 8 7 6 7 17 18 17 16 34 35 34 33 11 12 11 10 35 36 37 36 32 33 32 31 17 18 19 18
0 0 0 0 0 0 0 0 0 0 27 28 29 28 5 6 7 6 22 23 24 23 25 24 23 24 0 0 0 0 10 9 8 9 21 20 19 20 36 35 34 35 38 37 36 37 12 11 10 11 39 38 37 38 11 10 11 12 11 10 11 12 9 8 7 8 18 17 16 17 35 34 33 34 12 11 10 11 34 35 36 35 33 32 31 32 18 17 18 19
0 0 0 0 0 0 0 0 0 0 29 30 29 28 11 10 11 12 24 25 24 23 19 18 17 18 9 8 9 10 0 0 0 0 15 14 13 14 30 29 28 29 32 31 30 31 12 11 10 11 33 32 31 32 11 10 9 10 11 10 9 10 9 8 7 8 12 13 12 11 29 28 27 28 6 5 4 5 36 37 36 35 27 26 25 26 24 23 24 25
0 0 0 0 0 0 0 0 0 0 30 31 30 29 10 11 12 11 25 26 25 24 18 19 18 17 8 9 10 9 0 0 0 0 14 15 14 13 29 30 29 28 31 32 31 30 11 10 9 10 32 33 32 31 10 9 8 9 10 9 8 9 8 7 6 7 13 14 13 12 28 29 28 27 5 4 3 4 37 38 37 36 26 27 26 25 23 24 25 24
0 0 0 0 0 0 0 0 0 0 29 30 31 30 11 12 13 12 24 25 26 25 17 18 17 16 9 10 11 10 0 0 0 0 13 14 13 12 28 29 28 27 30 31 30 29 10 9 10 11 31 32 31 30 9 8 9 10 9 8 9 10 7 6 7 8 12 13 14 13 27 28 27 26 4 3 2 3 36 37 38 37 25 26 25 24 24 25 26 25
0 0 0 0 0 0 0 0 0 0 28 29 30 29 12 11 12 13 23 24 25 24 18 17 16 17 10 9 10 11 0 0 0 0 14 13 12 13 29 28 27 28 31 30 29 30 11 10 11 12 32 31 30 31 10 9 10 11 10 9 10 11 8 7 8 9 11 12 13 12 28 27 26 27 5 4 3 4 35 36 37 36 26 25 24 25 25 24 25 26
0 0 0 0 0 0 0 0 0 0 30 31 30 29 22 21 22 23 29 28 29 30 6 7 6 5 20 19 20 21 13 12 13 14 0 0 0 0 25 26 25 24 23 24 23 22 11 10 11 12 22 21 20 21 14 13 14 15 16 15 16 17 14 13 14 15 13 14 13 12 22 23 22 21 11 10 11 12 37 38 37 36 24 25 24 23 35 34 35 36
0 0 0 0 0 0 0 0 0 0 31 32 31 30 21 22 23 22 28 29 30 29 7 8 7 6 19 20 21 20 12 13 14 13 0 0 0 0 26 27 26 25 24 25 24 23 10 11 12 11 21 22 21 20 13 14 15 14 15 16 17 16 13 14 15 14 14 15 14 13 23 24 23 22 10 11 12 11 38 39 38 37 25 26 25 24 34 35 36 35
0 0 0 0 0 0 0 0 0 0 30 31 32 31 22 23 24 23 29 30 31 30 6 7 6 5 20 21 22 21 13 14 15 14 0 0 0 0 25 26 27 26 23 24 25 24 11 12 13 12 20 21 20 19 14 15 16 15 16 17 18 17 14 15 16 15 13 14 15 14 22 23 24 23 11 12 13 12 37 38 39 38 24 25 26 25 35 36 37 36
0 0 0 0 0 0 0 0 0 0 29 30 31 30 23 22 23 24 30 29 30 31 5 6 5 4 21 20 21 22 14 13 14 15 0 0 0 0 24 25 26 25 22 23 24 23 12 11 12 13 21 20 19 20 15 14 15 16 17 16 17 18 15 14 15 16 12 13 14 13 21 22 23 22 12 11 12 13 36 37 38 37 23 24 25 24 36 35 36 37
0 0 0 0 0 0 0 0 0 0 15 14 15 16 37 36 37 38 44 43 44 45 23 22 21 22 35 34 35 36 28 27 28 29 27 26 25 26 0 0 0 0 6 5 4 5 34 33 32 33 15 14 13 14 33 32 31 32 31 30 31 32 29 28 29 30 20 19 20 21 7 6 5 6 26 25 26 27 16 15 16 17 5 4 5 6 50 49 50 51
0 0 0 0 0 0 0 0 0 0 14 15 16 15 36 37 38 37 43 44 45 44 22 21 20 21 34 35 36 35 27 28 29 28 26 25 24 25 0 0 0 0 5 4 3 4 33 32 31 32 14 13 12 13 32 31 30 31 30 29 30 31 28 27 28 29 19 20 21 20 6 5 4 5 25 24 25 26 15 16 17 16 4 5 6 5 49 50 51 50
0 0 0 0 0 0 0 0 0 0 15 16 17 16 37 38 39 38 44 45 46 45 21 20 21 22 35 36 37 36 28 29 30 29 25 24 25 26 0 0 0 0 4 3 2 3 32 31 32 33 13 12 13 14 31 30 31 32 31 30 31 32 29 28 29 30 20 21 22 21 5 4 5 6 26 25 26 27 16 17 18 17 5 6 7 6 50 51 52 51
0 0 0 0 0 0 0 0 0 0 16 15 16 17 38 37 38 39 45 44 45 46 22 21 22 23 36 35 36 37 29 28 29 30 26 25 26 27 0 0 0 0 5 4 3 4 33 32 33 34 14 13 14 15 32 31 32 33 32 31 32 33 30 29 30 31 21 20 21 22 6 5 6 7 27 26 27 28 17 16 17 18 6 5 6 7 51 50 51 52
0 0 0 0 0 0 0 0 0 0 17 16 17 18 39 38 39 40 46 45 46 47 21 20 19 20 37 36 37 38 30 29 30 31 25 24 23 24 2 3 4 3 0 0 0 0 32 31 30 31 13 12 11 12 31 30 31 32 33 32 33 34 31 30 31 32 22 21 22 23 5 4 5 6 28 27 28 29 18 17 18 19 7 6 7 8 52 51 52 53
0 0 0 0 0 0 0 0 0 0 16 17 18 17 38 39 40 39 45 46 47 46 20 19 18 19 36 37 38 37 29 30 31 30 24 23 22 23 3 4 5 4 0 0 0 0 31 30 29 30 12 11 10 11 30 31 32 31 32 33 34 33 30 31 32 31 21 22 23 22 4 5 6 5 27 28 29 28 17 18 19 18 6 7 8 7 51 52 53 52
0 0 0 0 0 0 0 0 0 0 17 18 19 18 39 40 41 40 46 47 48 47 19 18 19 20 37 38 39 38 30 31 32 31 23 22 23 24 4 5 6 5 0 0 0 0 30 29 30 31 11 10 11 12 31 32 33 32 33 34 35 34 31 32 33 32 22 23 24 23 5 6 7 6 28 29 30 29 18 19 20 19 7 8 9 8 52 53 54 53
0 0 0 0 0 0 0 0 0 0 18 17 18 19 40 39 40 41 47 46 47 48 20 19 20 21 38 37 38 39 31 30 31 32 24 23 24 25 3 4 5 4 0 0 0 0 31 30 31 32 12 11 12 13 32 31 32 33 34 33 34 35 32 31 32 33 23 22 23 24 6 5 6 7 29 28 29 30 19 18 19 20 8 7 8 9 53 52 53 54
0 0 0 0 0 0 0 0 0 0 37 38 37 36 15 16 15 14 32 33 32 31 17 16 15 16 9 10 11 10 10 11 10 9 13 12 11 12 32 33 32 31 30 31 30 29 0 0 0 0 31 30 29 30 5 4 5 6 7 6 7 8 3 4 5 4 20 21 20 19 29 30 29 28 8 9 8 7 44 45 44 43 31 32 31 30 26 25 26 27
0 0 0 0 0 0 0 0 0 0 38 39 38 37 16 17 16 15 33 34 33 32 16 17 16 15 10 11 12 11 11 12 11 10 12 13 12 11 33 34 33 32 31 32 31 30 0 0 0 0 30 31 30 29 4 5 6 5 6 7 8 7 4 5 6 5 21 22 21 20 30 31 30 29 9 10 9 8 45 46 45 44 32 33 32 31 25 26 27 26
0 0 0 0 0 0 0 0 0 0 37 38 39 38 15 16 17 16 32 33 34 33 15 16 15 14 11 12 13 12 10 11 12 11 11 12 11 10 32 33 34 33 30 31 32 31 0 0 0 0 29 30 29 28 5 6 7 6 7 8 9 8 5 6 7 6 20 21 22 21 29 30 31 30 8 9 10 9 44 45 46 45 31 32 33 32 26 27 28 27
0 0 0 0 0 0 0 0 0 0 36 37 38 37 14 15 16 15 31 32 33 32 16 15 14 15 10 11 12 11 9 10 11 10 12 11 10 11 31 32 33 32 29 30 31 30 0 0 0 0 30 29 28 29 6 5 6 7 8 7 8 9 4 5 6 5 19 20 21 20 28 29 30 29 7 8 9 8 43 44 45 44 30 31 32 31 27 26 27 28
0 0 0 0 0 0 0 0 0 0 16 17 18 17 40 39 40 41 47 46 47 48 16 15 16 17 38 37 38 39 31 30 31 32 20 19 20 21 13 14 13 12 11 12 11 10 29 28 29 30 0 0 0 0 32 31 32 33 34 33 34 35 32 31 32 33 23 22 23 24 10 11 10 9 29 28 29 30 25 26 25 24 12 13 12 11 53 52 53 54
0 0 0 0 0 0 0 0 0 0 17 18 19 18 39 40 41 40 46 47 48 47 15 16 17 16 37 38 39 38 30 31 32 31 19 20 21 20 14 15 14 13 12 13 12 11 28 29 30 29 0 0 0 0 31 32 33 32 33 34 35 34 31 32 33 32 22 23 24 23 11 12 11 10 28 29 30 29 26 27 26 25 13 14 13 12 52 53 54 53
0 0 0 0 0 0 0 0 0 0 18 19 20 19 40 41 42 41 47 48 49 48 16 17 18 17 38 39 40 39 31 32 33 32 20 21 22 21 13 14 15 14 11 12 13 12 29 30 31 30 0 0 0 0 32 33 34 33 34 35 36 35 32 33 34 33 23 24 25 24 10 11 12 11 29 30 31 30 25 26 27 26 12 13 14 13 53 54 55 54
0 0 0 0 0 0 0 0 0 0 17 18 19 18 41 40 41 42 48 47 48 49 17 16 17 18 39 38 39 40 32 31 32 33 21 20 21 22 12 13 14 13 10 11 12 11 30 29 30 31 0 0 0 0 33 32 33 34 35 34 35 36 33 32 33 34 24 23 24 25 9 10 11 10 30 29 30 31 24 25 26 25 11 12 13 12 54 53 54 55
0 0 0 0 0 0 0 0 0 0 36 37 36 35 14 15 14 13 31 32 31 30 20 19 18 19 10 11 10 9 9 10 9 8 16 15 14 15 31 32 31 30 33 32 31 32 7 6 5 6 34 33 32 33 0 0 0 0 4 3 4 5 4 5 4 3 19 20 19 18 28 29 28 27 7 8 7 6 43 44 43 42 30 31 30 29 21 22 23 22
0 0 0 0 0 0 0 0 0 0 37 38 37 36 15 16 15 14 32 33 32 31 19 20 19 18 11 12 11 10 10 11 10 9 15 16 15 14 32 33 32 31 32 33 32 31 6 7 6 5 33 34 33 32 0 0 0 0 3 4 5 4 5 6 5 4 20 21 20 19 29 30 29 28 8 9 8 7 44 45 44 43 31 32 31 30 22 23 24 23
0 0 0 0 0 0 0 0 0 0 36 37 38 37 14 15 16 15 31 32 33 32 18 19 18 17 10 11 12 11 9 10 11 10 14 15 14 13 31 32 33 32 31 32 31 30 5 6 5 4 32 33 32 31 0 0 0 0 4 5 6 5 4 5 6 5 19 20 21 20 28 29 28 27 7 8 9 8 43 44 45 44 30 31 32 31 23 24 25 24
0 0 0 0 0 0 0 0 0 0 35 36 37 36 13 14 15 14 30 31 32 31 19 18 17 18 9 10 11 10 8 9 10 9 15 14 13 14 30 31 32 31 32 31 30 31 6 5 4 5 33 32 31 32 0 0 0 0 5 4 5 6 3 4 5 4 18 19 20 19 27 28 27 26 6 7 8 7 42 43 44 43 29 30 31 30 22 23 24 23
0 0 0 0 0 0 0 0 0 0 36 37 36 35 14 15 14 13 31 32 31 30 22 21 20 21 10 11 10 9 9 10 9 8 18 17 16 17 31 32 31 30 35 34 33 34 9 8 7 8 36 35 34 35 6 5 4 5 0 0 0 0 4 5 4 3 19 20 19 18 32 31 30 31 7 8 7 6 43 44 43 42 30 31 30 29 23 24 23 22
0 0 0 0 0 0 0 0 0 0 37 38 37 36 15 16 15 14 32 33 32 31 21 22 21 20 11 12 11 10 10 11 10 9 17 18 17 16 32 33 32 31 34 35 34 33 8 9 8 7 35 36 35 34 5 6 5 4 0 0 0 0 5 6 5 4 20 21 20 19 31 32 31 30 8 9 8 7 44 45 44 43 31 32 31 30 24 25 24 23
0 0 0 0 0 0 0 0 0 0 36 37 38 37 14 15 16 15 31 32 33 32 20 21 20 19 10 11 12 11 9 10 11 10 16 17 16 15 31 32 31 30 33 34 33 32 7 8 7 6 34 35 34 33 4 5 4 3 0 0 0 0 4 5 4 3 19 20 21 20 30 31 30 29 7 8 7 6 43 44 45 44 30 31 32 31 23 24 25 24
0 0 0 0 0 0 0 0 0 0 35 36 37 36 13 14 15 14 30 31 32 31 21 20 19 20 9 10 11 10 8 9 10 9 17 16 15 16 30 31 30 29 34 33 32 33 8 7 6 7 35 34 33 34 5 4 3 4 0 0 0 0 3 4 3 2 18 19 20 19 31 30 29 30 6 7 6 5 42 43 44 43 29 30 31 30 22 23 24 23
0 0 0 0 0 0 0 0 0 0 34 35 34 33 12 13 12 11 29 30 29 28 20 19 18 19 6 7 8 7 7 8 7 6 16 15 14 15 29 30 29 28 33 32 31 32 7 6 5 6 34 33 32 33 6 5 4 5 4 3 4 5 0 0 0 0 17 18 17 16 30 29 28 29 5 6 5 4 41 42 41 40 28 29 28 27 23 22 23 24
0 0 0 0 0 0 0 0 0 0 35 36 35 34 13 14 13 12 30 31 30 29 19 20 19 18 7 8 9 8 8 9 8 7 15 16 15 14 30 31 30 29 32 33 32 31 6 5 4 5 33 34 33 32 5 4 3 4 3 2 3 4 0 0 0 0 18 19 18 17 29 30 29 28 6 7 6 5 42 43 42 41 29 30 29 28 22 23 24 23
0 0 0 0 0 0 0 0 0 0 34 35 36 35 12 13 14 13 29 30 31 30 18 19 18 17 8 9 10 9 7 8 9 8 14 15 14 13 29 30 29 28 31 32 31 30 5 4 3 4 32 33 32 31 4 3 4 5 4 3 4 5 0 0 0 0 17 18 19 18 28 29 28 27 5 6 5 4 41 42 43 42 28 29 30 29 23 24 25 24
0 0 0 0 0 0 0 0 0 0 33 34 35 34 11 12 13 12 28 29 30 29 19 18 17 18 7 8 9 8 6 7 8 7 15 14 13 14 28 29 28 27 32 31 30 31 6 5 4 5 33 32 31 32 5 4 5 6 5 4 5 6 0 0 0 0 16 17 18 17 29 28 27 28 4 5 4 3 40 41 42 41 27 28 29 28 24 23 24 25
0 0 0 0 0 0 0 0 0 0 19 20 19 18 19 18 19 20 26 25 26 27 11 10 9 10 17 16 17 18 14 13 12 13 15 14 13 14 22 21 20 21 24 23 22 23 22 21 20 21 25 24 23 24 21 20 19 20 21 20 19 20 19 18 17 18 0 0 0 0 21 20 19 20 16 15 14 15 26 27 26 25 19 18 17 18 32 31 32 33
0 0 0 0 0 0 0 0 0 0 20 21 20 19 18 19 20 19 25 26 27 26 10 9 8 9 16 17 18 17 13 12 11 12 14 13 12 13 21 22 21 20 23 24 23 22 21 20 19 20 24 25 24 23 20 19 18 19 20 19 18 19 18 17 16 17 0 0 0 0 20 21 20 19 15 14 13 14 27 28 27 26 18 19 18 17 31 32 33 32
0 0 0 0 0 0 0 0 0 0 19 20 21 20 19 20 21 20 26 27 28 27 9 8 7 8 17 18 19 18 12 11 12 13 13 12 13 14 20 21 20 19 22 23 22 21 20 19 20 21 23 24 23 22 19 18 19 20 19 18 19 20 17 16 17 18 0 0 0 0 19 20 19 18 14 13 14 15 26 27 28 27 17 18 17 16 32 33 34 33
0 0 0 0 0 0 0 0 0 0 18 19 20 19 20 19 20 21 27 26 27 28 10 9 8 9 18 17 18 19 13 12 13 14 14 13 14 15 21 20 19 20 23 22 21 22 21 20 21 22 24 23 22 23 20 19 20 21 20 19 20 21 18 17 18 19 0 0 0 0 20 19 18 19 15 14 15 16 25 26 27 26 18 17 16 17 33 32 33 34
0 0 0 0 0 0 0 0 0 0 14 13 14 15 36 35 36 37 43 42 43 44 20 19 18 19 34 33 34 35 27 26 27 28 24 23 22 23 5 6 5 4 7 6 5 6 31 30 29 30 12 11 10 11 28 27 28 29 30 29 30 31 28 27 28 29 19 18 19 20 0 0 0 0 25 24 25 26 17 18 17 16 2 3 4 3 49 48 49 50
0 0 0 0 0 0 0 0 0 0 13 14 15 14 35 36 37 36 42 43 44 43 19 18 17 18 33 34 35 34 26 27 28 27 23 22 21 22 6 7 6 5 6 7 6 5 30 29 28 29 11 10 9 10 27 26 27 28 29 30 31 30 27 28 29 28 18 19 20 19 0 0 0 0 24 25 26 25 18 19 18 17 3 4 5 4 48 49 50 49
0 0 0 0 0 0 0 0 0 0 14 15 16 15 36 37 38 37 43 44 45 44 18 17 18 19 34 35 36 35 27 28 29 28 22 21 22 23 5 6 7 6 5 6 5 4 29 28 29 30 10 9 10 11 28 27 28 29 30 31 32 31 28 29 30 29 19 20 21 20 0 0 0 0 25 26 27 26 17 18 19 18 4 5 6 5 49 50 51 50
0 0 0 0 0 0 0 0 0 0 15 14 15 16 37 36 37 38 44 43 44 45 19 18 19 20 35 34 35 36 28 27 28 29 23 22 23 24 4 5 6 5 6 5 4 5 30 29 30 31 11 10 11 12 29 28 29 30 31 30 31 32 29 28 29 30 20 19 20 21 0 0 0 0 26 25 26 27 16 17 18 17 3 4 5 4 50 49 50 51
0 0 0 0 0 0 0 0 0 0 31 32 31 30 13 12 13 14 26 27 26 25 17 16 15 16 11 10 11 12 2 3 4 3 13 12 11 12 26 27 26 25 30 29 28 29 10 9 8 9 31 30 29 30 9 8 7 8 7 6 7 8 5 4 5 6 14 15 14 13 27 26 25 26 0 0 0 0 38 39 38 37 25 26 25 24 26 25 26 27
0 0 0 0 0 0 0 0 0 0 32 33 32 31 12 13 14 13 27 28 27 26 16 17 16 15 10 11 12 11 3 4 5 4 12 13 12 11 27 28 27 26 29 30 29 28 9 8 7 8 30 31 30 29 8 7 6 7 6 5 6 7 4 3 4 5 15 16 15 14 26 27 26 25 0 0 0 0 39 40 39 38 26 27 26 25 25 26 27 26
0 0 0 0 0 0 0 0 0 0 31 32 33 32 13 14 15 14 26 27 28 27 15 16 15 14 11 12 13 12 4 5 6 5 11 12 11 10 26 27 26 25 28 29 28 27 8 7 8 9 29 30 29 28 7 6 7 8 7 6 7 8 5 4 5 6 14 15 16 15 25 26 25 24 0 0 0 0 38 39 40 39 25 26 27 26 26 27 28 27
0 0 0 0 0 0 0 0 0 0 30 31 32 31 14 13 14 15 25 26 27 26 16 15 14 15 12 11 12 13 3 4 5 4 12 11 10 11 25 26 25 24 29 28 27 28 9 8 9 10 30 29 28 29 8 7 8 9 8 7 8 9 6 5 6 7 13 14 15 14 26 25 24 25 0 0 0 0 37 38 39 38 24 25 26 25 27 26 27 28
0 0 0 0 0 0 0 0 0 0 11 10 9 10 33 32 31 32 30 29 30 31 35 34 33 34 37 36 35 36 38 37 36 37 39 38 37 38 18 17 16 17 20 19 18 19 46 45 44 45 27 26 25 26 45 44 43 44 45 44 43 44 43 42 41 42 28 27 26 27 19 18 17 18 40 39 38 39 0 0 0 0 17 16 15 16 36 35 36 37
0 0 0 0 0 0 0 0 0 0 10 9 8 9 32 31 30 31 29 30 31 30 34 33 32 33 36 35 34 35 37 36 35 36 38 37 36 37 17 18 17 16 19 20 19 18 45 44 43 44 26 25 24 25 44 43 42 43 44 43 42 43 42 41 40 41 27 26 25 26 18 17 16 17 39 38 37 38 0 0 0 0 16 15 14 15 35 36 37 36
0 0 0 0 0 0 0 0 0 0 9 8 9 10 31 30 31 32 30 31 32 31 33 32 33 34 35 34 35 36 36 35 36 37 37 36 37 38 16 17 16 15 18 19 18 17 44 43 44 45 25 24 25 26 43 42 43 44 43 42 43 44 41 40 41 42 26 25 26 27 17 16 17 18 38 37 38 39 0 0 0 0 15 14 15 16 36 37 38 37
0 0 0 0 0 0 0 0 0 0 10 9 10 11 32 31 32 33 31 30 31 32 34 33 34 35 36 35 36 37 37 36 37 38 38 37 38 39 17 16 15 16 19 18 17 18 45 44 45 46 26 25 26 27 44 43 44 45 44 43 44 45 42 41 42 43 27 26 27 28 18 17 18 19 39 38 39 40 0 0 0 0 16 15 16 17 37 36 37 38
0 0 0 0 0 0 0 0 0 0 12 11 12 13 34 33 34 35 41 40 41 42 22 21 20 21 32 31 32 33 25 24 25 26 26 25 24 25 7 6 5 6 9 8 7 8 33 32 31 32 14 13 12 13 32 31 30 31 32 31 30 31 30 29 28 29 17 16 17 18 6 5 4 5 27 26 25 26 15 16 15 14 0 0 0 0 47 46 47 48
0 0 0 0 0 0 0 0 0 0 11 12 13 12 33 34 35 34 40 41 42 41 21 20 19 20 31 32 33 32 24 25 26 25 25 24 23 24 6 7 6 5 8 9 8 7 32 31 30 31 13 12 11 12 31 30 29 30 31 30 29 30 29 28 27 28 16 17 18 17 5 4 3 4 26 25 24 25 16 17 16 15 0 0 0 0 46 47 48 47
0 0 0 0 0 0 0 0 0 0 12 13 14 13 34 35 36 35 41 42 43 42 20 19 20 21 32 33 34 33 25 26 27 26 24 23 24 25 5 6 5 4 7 8 7 6 31 30 31 32 12 11 12 13 30 29 30 31 30 29 30 31 28 27 28 29 17 18 19 18 4 3 2 3 25 24 25 26 15 16 17 16 0 0 0 0 47 48 49 48
0 0 0 0 0 0 0 0 0 0 13 12 13 14 35 34 35 36 42 41 42 43 21 20 21 22 33 32 33 34 26 25 26 27 25 24 25 26 6 5 4 5 8 7 6 7 32 31 32 33 13 12 13 14 31 30 31 32 31 30 31 32 29 28 29 30 18 17 18 19 5 4 3 4 26 25 26 27 14 15 16 15 0 0 0 0 48 47 48 49
0 0 0 0 0 0 0 0 0 0 39 38 37 38 17 16 15 16 10 11 10 9 41 40 39 40 19 18 17 18 26 25 24 25 37 36 35 36 52 51 50 51 54 53 52 53 28 27 26 27 55 54 53 54 25 24 23 24 25 24 23 24 25 24 23 24 34 33 32 33 51 50 49 50 28 27 26 27 38 37 36 37 49 48 47 48 0 0 0 0
0 0 0 0 0 0 0 0 0 0 38 39 38 37 16 17 16 15 11 12 11 10 40 41 40 39 18 19 18 17 25 26 25 24 36 37 36 35 51 52 51 50 53 54 53 52 27 28 27 26 54 55 54 53 24 23 22 23 24 23 22 23 24 25 24 23 33 34 33 32 50 51 50 49 27 28 27 26 37 38 37 36 48 49 48 47 0 0 0 0
0 0 0 0 0 0 0 0 0 0 37 38 37 36 15 16 15 14 10 11 12 11 39 40 39 38 17 18 17 16 24 25 24 23 35 36 35 34 50 51 50 49 52 53 52 51 26 27 26 25 53 54 53 52 23 22 21 22 23 22 23 24 23 24 23 22 32 33 32 31 49 50 49 48 26 27 26 25 36 37 36 35 47 48 47 46 0 0 0 0
0 0 0 0 0 0 0 0 0 0 38 37 36 37 16 15 14 15 9 10 11 10 40 39 38 39 18 17 16 17 25 24 23 24 36 35 34 35 51 50 49 50 53 52 51 52 27 26 25 26 54 53 52 53 24 23 22 23 24 23 24 25 24 23 22 23 33 32 31 32 50 49 48 49 27 26 25 26 37 36 35 36 48 47 46 47 0 0 0 0
GTSP_SET_SECTION
1 1 -1
2 2 -1
3 3 -1
4 4 -1
5 5 -1
6 6 -1
7 7 -1
8 8 -1
9 9 -1
10 10 -1
11 11 12 13 14 -1
12 15 16 17 18 -1
13 19 20 21 22 -1
14 23 24 25 26 -1
15 27 28 29 30 -1
16 31 32 33 34 -1
17 35 36 37 38 -1
18 39 40 41 42 -1
19 43 44 45 46 -1
20 47 48 49 50 -1
21 51 52 53 54 -1
22 55 56 57 58 -1
23 59 60 61 62 -1
24 63 64 65 66 -1
25 67 68 69 70 -1
26 71 72 73 74 -1
27 75 76 77 78 -1
28 79 80 81 82 -1
29 83 84 85 86 -1
30 87 88 89 90 -1
