EGSTP_runtime_files/empty-32-32_p_safe_0.8_typeOfTest_1_mEgtsp.tour
NAME : mEgtspf.65.tour
COMMENT : Length = 65
COMMENT : Found by GLKH [Keld Helsgaun] Sun May  4 11:59:33 2025
TYPE : TOUR
DIMENSION : 9
TOUR_SECTION
1
2
27
12
9
3
17
21
6
-1
EOF
